Rodando pra 1h

Optimize a model with 360039 rows, 539130 columns and 6279774 nonzeros
Coefficient statistics:
  Matrix range    [1e+00, 1e+04]
  Objective range [1e+00, 1e+00]
  Bounds range    [1e+00, 1e+04]
  RHS range       [1e+00, 1e+04]
Presolve removed 2 rows and 2 columns (presolve time = 10s) ...
Presolve removed 4 rows and 4 columns (presolve time = 13s) ...
Presolve removed 4 rows and 4 columns (presolve time = 17s) ...
Presolve removed 4 rows and 4 columns (presolve time = 20s) ...
Presolve removed 4 rows and 4 columns (presolve time = 25s) ...
Presolve removed 4 rows and 4 columns (presolve time = 30s) ...
Presolve removed 4 rows and 4 columns (presolve time = 35s) ...
Presolve removed 4 rows and 4 columns (presolve time = 40s) ...
Presolve removed 4 rows and 4 columns (presolve time = 46s) ...
Presolve removed 4 rows and 4 columns (presolve time = 51s) ...
Presolve removed 4 rows and 4 columns (presolve time = 56s) ...
Presolve removed 4 rows and 4 columns (presolve time = 65s) ...
Presolve removed 4 rows and 4 columns
Presolve time: 65.08s
Presolved: 360035 rows, 539126 columns, 6279756 nonzeros
Variable types: 359400 continuous, 179726 integer (179725 binary)
Optimize a model with 360035 rows, 539126 columns and 6279756 nonzeros
Coefficient statistics:
  Matrix range    [1e+00, 1e+04]
  Objective range [1e+00, 1e+00]
  Bounds range    [1e+00, 1e+04]
  RHS range       [1e+00, 2e+04]
Presolve removed 0 rows and 0 columns (presolve time = 5s) ...
Presolved: 360035 rows, 539126 columns, 6279756 nonzeros


Root simplex log...

Iteration    Objective       Primal Inf.    Dual Inf.      Time
       0    0.0000000e+00   1.804585e+03   0.000000e+00     91s
    1217    0.0000000e+00   0.000000e+00   0.000000e+00     92s

Root relaxation: objective 0.000000e+00, 1217 iterations, 7.35 seconds

    Nodes    |    Current Node    |     Objective Bounds      |     Work
 Expl Unexpl |  Obj  Depth IntInf | Incumbent    BestBd   Gap | It/Node Time

     0     0    0.00000    0  611          -    0.00000      -     - 2952s

Cutting planes:
  Flow cover: 226

Explored 0 nodes (362469 simplex iterations) in 3712.47 seconds
Thread count was 1 (of 4 available processors)

Time limit reached
Best objective -, best bound 0.000000000000e+00, gap -
Tempo: 3706.56 segundos

Error code = 10004
Var::get
